c SAT Generator for power-law distributed variable frequencies
c -g u -v 20 -c 91 -k 3 -p 2.750000 -b 3.200000 -f /home/schmidt/Devel/ni-kop-sat/data/ensemble/ruf20-91/ruf20-91-903 -u 1 -U 1 -s 2352048647
p cnf 20 91
1 16 17 0
3 17 -20 0
-2 9 -20 0
6 -13 14 0
-4 12 -20 0
-3 8 -13 0
1 3 7 0
-1 8 15 0
6 -15 -16 0
1 -4 -17 0
9 -14 15 0
-10 11 -14 0
-2 9 -19 0
10 -12 -15 0
5 6 -14 0
-4 -7 11 0
10 -11 12 0
-12 -15 16 0
-9 -12 -19 0
3 -8 -18 0
2 -5 -15 0
-6 16 19 0
-1 10 -12 0
2 -4 -19 0
-9 -15 -20 0
-3 -9 -16 0
-1 5 20 0
3 -4 -11 0
-7 -15 -17 0
4 7 15 0
4 11 19 0
-2 -10 -20 0
12 -16 19 0
5 -12 -16 0
-8 -12 -19 0
1 -17 19 0
4 7 -16 0
-8 9 15 0
-2 -3 -16 0
1 4 -7 0
-9 -11 -16 0
7 17 -19 0
8 15 -17 0
-2 -8 11 0
1 -4 -13 0
8 -11 -20 0
4 -9 14 0
1 -8 17 0
6 8 9 0
-4 8 -9 0
-4 -14 -16 0
-1 -7 -13 0
-1 2 3 0
-1 -8 13 0
6 -13 18 0
-2 6 7 0
-12 18 19 0
7 15 17 0
2 7 13 0
10 17 -20 0
-5 -7 -10 0
-6 11 -14 0
1 4 -18 0
-2 -11 19 0
2 -3 17 0
16 18 19 0
-2 18 -19 0
10 -16 -20 0
2 10 11 0
4 12 13 0
-8 -19 -20 0
-10 -16 17 0
7 -18 -20 0
11 -18 -20 0
-6 19 -20 0
10 12 19 0
4 -8 11 0
10 11 -17 0
-1 -3 9 0
10 -14 -17 0
-10 11 -12 0
12 16 -20 0
-1 -7 -11 0
5 13 -20 0
1 -10 -14 0
8 -19 -20 0
3 9 -14 0
-11 18 20 0
4 6 -8 0
7 11 12 0
-3 -8 17 0
